
 102   30
  10   10   10   10   10   10   10   10   10   10   10   10   10   10   10   10   10   10   10   10   10   10   10   10   10   10   10   10   10   10

   0   0   0   0   0   0   0   0   0   0   0   0   0   0   0   0   0   0   0   0   0   0   0   0   0   0   0   0   0   0   0  26 2 3 4 5 6 7 8 9 10 11 12 13 14 15 16 17 19 21 22 24 27 28 29 30 32 36 
   7   0   0   0   0   0   0   1   3   0   1   0   0   0   0   0   2   0   0   0   0   2   0   0   0   0   0   0   0   0   0  18 78 77 69 68 64 61 58 54 53 50 48 47 46 45 44 37 34 23 
   2   0   2   0   0   0   0   0   0   0   0   0   0   0   0   2   0   0   0   0   0   0   0   0   2   0   0   0   0   0   1  18 77 75 68 63 56 54 53 52 51 49 48 47 45 44 41 39 35 33 
  10   0   0   1   0   0   0   0   0   0   0   2   0   0   0   1   0   2   0   0   0   0   0   1   0   0   0   2   0   0   6   8 68 60 55 50 49 26 25 18 
   1   0   0   0   0   0   0   0   0   0   0   0   0   0   0   0   0   0   0   1   0   0   0   0   0   0   0   0   0   2   0  13 75 72 68 58 57 56 51 49 47 45 42 40 18 
   7   0   0   4   0   1   0   0   2   0   6   0   0   0   0   0   0   0   1   0   0   0   0   7   9   1   0   0   0   0   0  17 100 77 76 75 63 61 58 57 56 55 52 48 45 44 41 39 34 
   8   0   0   0   0   0   0   0   0   0   0   0   0   0   0   0   0   0   9   3   0   0   0   0   0   0   0   0   0   0   0  15 101 97 76 74 69 67 62 61 60 54 46 39 37 31 20 
   4   0   0   0   0   0   0   0   0   0   0   7   0   5   0   0   0   0   0   0   0   4   0   0   0   0   0   3   0   0   0  14 100 78 77 74 64 63 61 60 57 50 48 43 31 23 
   5   0   0   0   0   0   0   0   0   0   0   0   0   0   0   2   0   0   0  10   0   0   0   0   6   0   0   0   0   0   0  12 100 95 78 69 67 53 50 48 46 42 38 25 
   3   0   3   0   0   9   0   0   4   0   0   0   0   4   0   0   0   0   0   8   0   0   0   0   0   0   0   0   0   0   0  12 76 75 64 57 54 52 48 47 40 38 37 31 
   6   1   0   0   0   0   3   0   0   0   0   0   0   0   0   0   0   0   0   6   0   0   3   0   0   0   0   0   0   5   0  15 99 92 77 74 70 63 61 60 58 57 55 51 48 41 37 
   7   9   0   6   0   0   0   0   9   0   0   0   1   0   0   0   0   0   0   0   0   0   0   0   0   0   0   0   0   0   0  12 101 96 78 74 68 66 63 61 60 53 46 23 
   3   0   0   0   0   0   0   0   0   0   0   0   0   0   0   0   1   0   9   0   0   0   4   0   8   0   0   0   0   0   0  18 100 99 96 94 93 91 84 77 76 75 73 71 68 66 65 64 59 45 
   2   0   5   8   0   0   0   7   0   0   0   0   6   0   3   0   8   0   0   0   0   0   0   0   5   0   0   0   0   0   0  15 100 98 96 95 92 70 69 66 65 63 56 51 48 42 41 
   5   0   0   0   0   0   0   0   0   0   8   0   0   0   0   0   0   0   0   0   1   0   0   0   0   7   0   0   0   0   0  15 98 97 93 76 75 74 73 71 70 66 65 59 53 51 44 
   3   0   0   0   0   0   0   7   0   3   0  10   0   0   4   0   0   0   6   0   0   0   0   0   0   0   0   0   0   0   0  13 101 97 96 78 77 74 73 72 68 56 53 48 40 
   4   0   0   0   0   0   0   0   7   0   0   0   0   0   0   0   0   0  10   0   0   0  10   0   8   5   0   0   0   0   0  22 101 99 98 97 95 94 93 92 91 89 77 76 75 73 72 71 70 67 66 62 59 53 
   3   0  10   8   0   0   0   0   0   0   0   0   7   0   8   0   0   0   6   7   0   0   0   0   0   0   0   0   0   0   0  12 100 99 95 77 76 74 70 64 53 52 48 41 
   4   0   0   0   0   0   0   0   0   0   0   0   0   0   0   0   0   0   0   0   0   0   0   0   0   0   0   8   0   0   0  17 100 99 98 97 95 94 91 90 70 69 67 66 62 59 56 54 52 
   5   0   0   0   0   0   0   0   0   0   0   0   0   0   0   0   0   0   0   0   0   0   0   0   0   0   2   0   0   0   0  16 100 95 94 93 92 90 78 77 75 73 72 70 56 55 53 47 
   8   0   0   0   0   0   0   0   5   0   0   0   8   0   0   0   0   0   0   0   0   0   0   0   0   0   0   0   2   0   0  17 99 98 97 96 95 92 90 87 80 73 70 69 66 65 63 56 50 
   1   0   0   0   0   0   0   0   0   0   0   0   0   0   0   0   0   4   0   0   0   0   0   0   0   0   0   7   0   0   0  17 100 98 96 95 94 93 91 89 88 86 78 76 65 64 62 60 52 
   3   0   0   0   0   0   0   0   0   0   0   0   0   0   8   6   0   0   0   0   0   0   0   0   0   0   0   0   0   0   0  16 98 97 95 93 92 89 88 76 75 73 72 71 70 62 59 51 
   3   0   0   0   0   0   0   0   0   3   0   0   0   0   0   7   0   0   0   0   5   0   6   0   0   0   0   0   0   0   0  17 99 98 97 95 92 91 90 89 80 75 73 71 70 66 65 63 62 
   4   0   0   0   0   0   0   0   0   0   9   0   0   0   0   0   0   5   0   5   0   0   0   0   0   0   0   0   0   7   0  15 101 98 94 92 91 85 76 74 73 71 70 66 63 57 56 
   2   0   0   0   0   0   0   0   0   0   0   0   0   0   0   0   0   0   0   0   0   0   0   0   0   7   0   0   0   0   0  14 96 95 92 91 89 85 82 78 72 71 70 67 66 46 
   6   0   0   0   0   0   8   0   0   0   7   0   0   0   0   4   0   0   6   0   0   0   0   0   6   0   0   0   0   0   6  14 100 95 94 92 90 84 74 73 70 66 62 61 60 50 
   2   0   0   0   0   0   0   0   0   0   0   0   0   0   0   0   0   0   0   0   0   0   0   0   0   0   0   0   3   0   7  14 95 93 85 78 76 75 73 71 69 67 66 65 59 56 
   6   0   0   0   0   0   0   0   0   0   0   0   0   0   0   7   0   0   0   0   0   0   0   0   0   0   0   0   0   0   0  11 96 95 93 92 84 75 74 70 67 64 41 
   4   0   0   5   0   8   0   0   0   0   0   0   0   0   2   0   0   0   0   0   0   0   0   5   0   0   0   0   0   0   0  16 101 98 97 95 94 93 90 89 85 80 74 73 70 66 65 63 
   2   0   0   0   1   0   0   0   4   0   0   0   0   0   0   0   0   0   0   0   0   0   0   0   0   8   0   3   7   7   0  16 99 98 96 94 93 90 87 85 84 80 73 72 71 70 66 56 
   9   9   0   0   0   0   0   5   0   0   0   0   0   0   0   0   0   8   0   6   5   0   0   5   0   0   0   0   0  10   0  15 96 95 94 93 92 91 90 85 84 74 70 67 66 59 56 
   6   0   0   0   0   0   0   0   0   0   0   0   0   0   0   0   0   0   0   0   0   8   0   0   0   0   0   0   0   0   0  14 98 97 95 94 92 90 89 87 84 83 71 66 60 55 
   1   0   0   0   0   0   0   8   0   0   0   0   5   0   0   6   0   4   0   0   0   0   0   0   0   5   0   0   0   5   0   7 101 91 88 86 74 67 40 
   6   0   0   0   0   5   9   0   0   0   0   0   7   0   0   0   0   0   0   0   0   0   0   0   0   0   0   0   0   0   0  15 100 97 96 95 91 90 89 85 83 82 74 71 70 66 59 
   1   3   0   0   0   0   0   0   0   0   0   4   0   0   0   0   0   0   0   0   8   0   0   0   0   0   0   0   0   0   0  11 93 92 91 90 84 78 72 71 66 62 56 
   3   0   2   7   0   0   4   0   0   0   0   0   0   0   0   0   0   0   0   0   0   0   0   6   0   0   0   0   0   0   0  12 100 95 94 93 91 90 80 79 73 72 66 56 
   7   0   0   0   0   0   0   7   0   0   0   0   0   0   0   0   0   0   0   7   4   0   0   4   8   0   0   0   0  10   0  13 97 96 91 90 87 86 85 84 82 80 79 72 66 
   2   0   0   0   0   0   0   0   0   0   0   5   0   0   0   0   8   0   0   0   0   0   0   0   0   0   0   0   0   0   0  12 98 96 91 90 89 88 87 84 81 79 73 65 
   5   0   0   0   8   0   7   0   0   0   0   0   9   0   0   0   0   5   0   0   0   0   0   0   3   0   0   0   0   0   0   9 99 94 92 90 89 84 70 62 60 
   6   0   0   0   0   0   0   0   0   0   0   6   0   0   0  10   0   0   0   0   0   0   1   0   0   0   0   0   0   4   0   8 97 91 90 89 82 73 62 59 
   9   0   0   9   0   0   0   4   0   0   0   0   0   0   0   0   0   0   0   0   0   0   0   8   0   0   0   0   7   0   0  10 91 90 89 88 86 84 82 80 71 62 
   6   0   0   0   9   0   0   0   0   0   7   0   0   0   0   0   9   0   0   0   0   0   0   0   0   0   0   0   0   0   0   7 96 94 83 73 71 70 53 
   3   0   0   0   0   0   0   0   0   0   0   0   0   0   0   0   0   7   0   0   0   7   0   0   0   0   0   0   3   0   0  13 96 95 94 92 90 89 88 84 83 82 81 80 79 
   3   0   0   0   0   0   0   0   0   0   3   4   0   4   0   0   0   0   0   0   0   0   0   0   0   0   0   7   8   0   7  10 101 98 95 92 90 89 80 79 74 62 
  10   0   0   0   0   0   0   0   0  10   0   0   0   0   0   0   0   0   0   0   0   5   0   7   0   0   0   0   0   0   6   7 98 94 93 88 84 75 59 
   9   0   0   2   0   0   0   0   0   0   0   5   0   6   0   0   0   8   0   0   0   0   0   0   0   0   0   0   0   0   0   7 96 91 87 85 84 66 59 
   1   0   0   0   0   0   7   6   0   0   0   0   0   0   0   7   0   0   0   0   0   0   0   0   0   0   7   0   0   0   7  10 94 93 91 89 87 85 84 81 80 71 
   3   6   0   0   0   0  10   0   0   0   0   0   0   0   0   0   7   0   6   0   0   0   0   0   0   0   7   0   0   0   0   7 92 86 84 83 80 76 74 
   9   0   0   9   0   0   0   0   0   0   0   0   0   0  10   0   0   0   7   0   8   0   0   0   0   0   0   0   0   0   0   7 93 91 88 85 82 81 71 
   8   0   0   0   0   0   0   0   0   7   0   0   0   0   8   0   0   0   0   0   0   0   0   0   0   0   0   0   0   0   6   6 91 86 84 82 80 67 
   5   5   0   0   0   0   0   0   0   0   0   0   0   0   0   0   0   0   0   0   0   0   0   7   0   0   5   0   0   0   0   7 92 85 84 82 81 80 79 
   5  10   0   8   0   0   0   0   6   0   0   0   0   0   0   6   0   0   0   0   0   0   8   0   0   0   7   0   0   0   0   6 85 84 82 81 80 79 
  10   7   0   0   0   0   0   0   0   0   0   0   0   0   0   0   0   0   0   0   0   0   0   0   0   0  10   0   0   0   0   5 93 92 89 81 72 
  10   0   0   0   0   7   0   0   0   0   0   0   0   0   0   0   0   0   0   0   0   0   0   6   0   0   0   0   0   0   0   2 96 59 
   9   0   0   0   0   0   0   0   5   0   0   0   0   0   0   8   0   0   0   0   0   0   0   0   6   0   0   0   0   9   0   5 89 88 86 82 81 
   2   0   0   0   0   0   0   0   0   6   0   0   0   0   0   0   0   0   0   0   0   0   0   0   0   0   0   0   9   0   0   5 93 88 86 83 80 
   9   0   0   0   0   0   0   0   0   8   0   4   0   0   0   0   0   0   0   0   0   0   0   0   0   0   0   0   0   4   0   5 84 82 81 80 79 
   6   0   0   0   0   0   0   0   0   0   0   0   0   0   7   0   0   5   0   0   0   0   0   0   0   0   4   0   0   0   0   4 86 81 80 79 
   7   0   0   8   0   0   0   0   0   0   0   0   0   0   0   0   0   0   4   0   0   0   0   0   0   0   0   0   0   0   7   4 85 82 81 80 
   8   0   0   0   0   0   0   0   0   8   0   0   0   0   0   0   4   0   0   0   0   4   0   0   0   0   0   0   0   0   0   4 89 85 81 79 
   3   0   0   0   0   0   2   0   0   0   0   0   0  10   0   0   0   0   0   0   0   0   0   0   0   0   0   0   0   0   0   3 87 85 83 
   9   0   0   0   0   0   0   0   0   0   0   0   0   0   0   0   0   6   0   5   0   0   0   0   0   0   0   6   0   0   0   3 84 82 79 
  10   0   0   0   0   0   0   0   0   0   0   7   0   0   0   0   0   6   0   0   0   0   0   8   0   0   0   0   0   0   0   3 97 87 85 
   7   0   0   0   0  10   4   0   0   0   0   0   0   0   0   7   0   0   0   0   0   0   0   0   0   0   0   9   0   0   0   2 82 72 
   8   6   0   0   0   0   0   0   0   0   0   0   0   0   6   0   0   0   0   0   0   0   7   0  10   0   4   0   0   0   0   2 88 81 
   9   0   5   0   0   0   0   9   0   0   0   0   6   0   0   5   0   0   0   0  10   0   0   0   0   0   0   0   0   0   0   2 87 79 
  10   0   0   3   0   0   6   0   0   0   0   0   0   6   0   0   0   0   0   0   0   0   0   0   3   0   0   0   0   0   0   2 92 83 
   2   0   0   0   0   0   0   0   8   0   0   0   0   0   0   0   4   7   0   0   4   0   7   0   0   4   0   0   0   0   0   2 88 84 
  10   0   0   0   0   6   0   0   0   0   0   0   0   0   0   0   0   7   0   0   0   0   0   0   0   4   5   0   0   0   0   1 79 
   9   0   0   0   0   0   0   0   0   0   0   0   0   0   0   0   0   0   0   0   0   0   0   0   0   0   0   0   0   0   0   1 79 
   6   0   0   0   0   0   0   6   0   0   0   9   0   0   0   0   0   0   0   0   0   0   0   0   0   0   0   0   6   0   0   1 83 
   1   0   0   0   0   0   0   0   0   0   0   9   0   2   0   0   0   0   0   9   0   0   0   0   6   7   0   0   0   0   0   1 86 
   1   0   0   0   0   0   0   0   8   0   0   9   0   0   0   0   0   0   0   0   0   0   0   9   0   0   0   0   0   0   0   1 87 
   5   0   0   0   0   0   0   0   0   0   0   9   0   0   0   9   0   5   0   0   0   0   0   0   0   0   0   0   0   0   0   1 83 
   4   0  10   0   0   0   0   0   0   0   0   0   0   0   0   0   0   7   0   6   0   0   0   0   0   0   0   5   0   0   0   1 90 
   8   0   0   0   0   0   0   0   6   0   0   0   0   0   4   0   0   0   0   0   0   0   4   0   0   0   0   0   0   7   0   1 88 
   9   0   0   0   0   0   0   0   0   0   0   2   0   0   0  10   0   0   0   7   0   0   0   0   4  10   0   0   0   0   0   1 80 
   5   0   0   0   0   7   0   0  10   4   0   0   0   0   0   0   0   0   0   0   0   0   0   0   0   0   0   0   0   0   0   1 102
   2   4   0   0   0   0   0   6   0   0   0   0   9   0   0   0   4   0   0   0   0  10   0   0   0   0   0   0   0   0   0   1 102
   4   0   4   0   0   4   0   0   0   4   0   0   0   0   0   0   0   0   4   0   0   5   0   0   0   0   0   7   0   4   0   1 102
   7   0   0   0   0   0   0   0   0   0   0   0   4   0   0   6   0   0   0   0   0   0   9   0   0   0   0   0   0   0   0   1 102
   3   0   0   0   0   0   0   0   4   7   0   0   0   0   0   0   0   0   0   0   0   0   0   0   0   0   0   0   0   0   0   1 102
  10   0   0   0   0   0   0   0   0   0   0   0   0   0   0   0   0   0   0   4   0   5   0   0   0   6   0   0   0   0   0   1 102
   2   6   0   3   0   0   0   0   0   0   0   0   4  10   0   0   7   0   0   0   0   0   0   5   6   0   0   0   6   4   7   1 102
   5   0  10   7   0   0   0   0   6   0   0   0   0   0   7   0  10  10   0   0   7   0  10   0   0   0   0   0   0   0   0   1 102
   3   0   0   0   0   0   0   0   4   0   0   0   0   0   0   0   8   0   6   7   6   0   0   0   0   0   0   0  10   0   0   1 102
  10   0   0   0   0   4   0   0   0   0   7   0   0   0   4   0   0   0   0   0   0   0   0   0   0   0   0   0   0   0   0   1 102
  10   0   0   0   0   5   0   0   9   0   0   0   0   0   0   6   0   0   0   4   8   0   0   0   0   0   0   0   0   0   0   1 102
   5   6   5   0   0   0   0   7   0   0   0   0   0   0   0   0   0   0   0   0   0   0   0   0   0   0   0   8   0   0   0   1 102
   3   0   0   0   0   0   0   0   0   0   0   0   0   0   0   0   0   0   0   0   0   0   6   5   0   0   0   0   0   0   0   1 102
  10   0   0   7   0   0   0   0   8   4   0   0   0   5   0   4   0   0   0   7   0  10   7   0   0   0   0   3   0   0   0   1 102
   8   0   0   0   0   0   0   5   0   0   0   0   0   0   0   0   0   0   0   6   0   0   0   0   0   0   0   0   0   0   0   1 102
   7   0   0   0   0   0   0   0   0   5   0   0   0   0   6   0   0   0   4   0   0   0   2   0   0   0   0   0   6   0   0   1 102
   1   0   0   7   0   0   0   0   0   0   0   0   0   8   5   0   0   0   0   0   0   0   0   5   0   0   0   0   0   0   0   1 102
   8   0   0   0   0   0   0   0   0   0   0   0   0   6  10   0   0   0   0   0   0   0   0   0   0   0   0   0   0   0   0   1 102
   1   0   0   0   0   0   0   0   0   0   0   0   6   0   0   0   0   0   0   0   0   0   0   8   0   8   0   0   0   0   0   1 102
   6   6  10   0   0   0   0   0   0   9   0   0   0   0   0   0   0   0   0   0   0   0   0   0   0   0   0   0   0   0   0   1 102
   2   0   0   0   0   0   0   0   0   0   0   4   0   0   5   7   0   0   0   0   0   0   0   0   8   0   0   0   0   0   0   1 102
   3   0   0   0   0   0   0   0   0   0   0   0   0   0   5   0   0   0   0   0   0   0   0   0   4   0   0  10   5   0   0   1 102
   7   0   0   0   0   0   0   0   0   0   0   0   0   0   0   0   0   0   0   0   0   0   0   0   0   0   9   0   0   0   0   1 102
   0   0   0   0   0   0   0   0   0   0   0   0   0   0   0   0   0   0   0   0   0   0   0   0   0   0   0   0   0   0   0   0 
